S = 8;
start = [|48,0,0,44,0,14,0,0,0,8,12,0,0,0,0,0,0,0,0,0,0,0,21,0,35,28,0,0,29,0,0,20,0,0,41,0,0,0,0,0,39,0,1,0,49,10,34,0,0,0,0,63,0,0,0,0,0,0,0,0,0,0,31,0|
0,0,0,0,49,31,0,25,0,0,0,0,48,5,0,0,29,20,0,0,0,0,0,0,0,0,24,0,52,2,58,0,0,53,8,0,0,0,28,0,0,11,0,0,27,16,44,18,0,19,41,4,0,0,0,0,43,0,0,0,36,59,34,0|
0,0,0,38,51,0,0,0,0,0,6,0,39,0,26,0,0,55,0,41,10,24,0,0,22,0,0,27,0,0,47,19,42,0,29,0,54,0,23,0,0,64,0,0,0,0,0,8,46,30,0,0,0,60,0,0,0,0,0,0,0,0,0,0|
0,16,60,0,0,0,0,0,0,35,0,34,0,22,0,47,50,0,0,0,30,27,17,0,0,54,43,0,0,0,0,0,63,0,0,0,24,0,0,0,0,26,0,0,0,0,0,0,0,10,0,0,57,0,32,36,0,2,0,0,49,55,1,19|
22,29,9,50,0,0,42,62,0,0,0,0,0,24,54,0,52,0,49,0,36,0,0,0,0,26,0,0,0,0,4,0,0,16,0,55,0,0,32,0,0,0,63,0,0,3,25,0,0,0,11,0,0,0,0,0,7,0,0,0,28,0,40,0|
0,53,0,0,46,7,0,63,0,0,0,0,36,0,0,0,0,0,0,0,0,0,9,0,3,0,32,0,1,0,21,0,0,2,48,0,13,0,35,26,0,0,0,0,28,4,6,0,0,55,8,0,0,42,0,0,0,52,0,0,0,0,14,0|
0,0,0,0,15,0,2,0,0,0,0,32,0,43,0,0,34,23,31,0,44,28,0,0,62,30,39,64,0,0,0,0,10,46,0,0,0,0,0,0,38,0,0,42,57,0,36,56,0,5,9,0,24,18,0,0,0,0,0,48,0,27,0,0|
8,32,36,0,0,0,18,0,0,0,7,0,0,9,64,0,5,0,1,0,0,0,25,0,0,0,63,0,0,0,51,50,0,14,0,0,58,0,0,31,0,0,0,0,0,46,0,55,0,13,0,49,62,0,29,0,0,22,0,3,0,0,21,0|
0,0,0,0,0,18,0,0,0,0,57,0,11,0,0,0,21,49,0,63,27,0,28,0,32,0,0,3,34,48,0,0,52,0,0,0,0,0,0,45,0,0,0,0,0,14,15,0,0,0,0,0,0,8,0,0,0,0,0,0,0,0,0,22|
24,5,14,0,0,0,0,46,0,53,0,50,59,0,0,0,0,0,0,55,0,0,22,0,0,0,0,0,0,30,0,0,43,0,0,0,0,0,60,29,0,0,7,0,17,0,64,0,0,52,56,0,0,15,62,0,0,0,49,0,0,31,0,0|
50,0,0,0,61,0,0,0,0,0,60,0,0,0,0,0,0,0,0,0,0,17,52,0,0,0,59,0,0,25,28,0,0,12,19,5,57,0,0,0,0,34,0,0,0,0,0,48,0,0,0,0,0,0,0,0,0,0,54,0,0,46,0,0|
0,64,0,0,37,0,22,0,19,55,0,0,0,0,0,58,0,0,0,13,0,0,14,0,0,21,0,50,0,0,0,0,0,0,28,0,0,0,0,0,0,38,0,11,0,0,26,4,0,0,0,0,0,0,0,0,0,51,0,42,0,0,0,59|
26,17,8,0,0,0,0,35,3,9,0,12,0,0,41,0,0,0,0,0,7,45,44,0,0,0,0,23,2,0,6,0,0,0,0,0,31,22,0,0,0,21,0,29,60,0,0,0,54,32,0,0,0,0,0,0,30,1,0,0,0,56,0,0|
0,7,27,0,0,9,3,0,37,0,0,0,20,0,0,0,0,38,0,12,0,0,24,0,0,60,10,0,22,0,0,57,51,0,0,0,0,55,63,0,0,54,0,18,0,0,0,0,0,0,0,0,48,0,43,0,0,0,13,0,0,0,0,0|
45,0,12,0,28,0,0,59,0,17,25,0,0,0,0,0,0,3,9,0,0,6,54,0,0,0,20,47,62,55,0,14,53,0,15,13,0,61,16,27,5,42,0,24,23,19,0,0,0,35,30,0,22,34,0,51,0,21,4,0,39,0,29,58|
0,58,0,48,60,0,15,0,0,0,0,62,0,0,0,0,0,0,0,64,34,0,26,0,0,51,0,0,33,0,17,4,0,0,14,38,56,0,0,46,0,0,45,0,22,0,0,0,0,0,0,0,0,0,0,25,36,7,11,0,0,0,0,0|
44,0,0,60,0,0,63,0,36,0,3,0,64,19,34,0,0,25,0,0,4,21,0,0,37,58,0,54,0,0,0,0,39,0,7,0,0,42,0,0,0,0,27,0,0,0,0,0,0,29,0,0,5,52,1,0,0,0,0,28,40,0,0,0|
2,23,21,0,0,0,0,14,0,0,0,0,35,0,45,0,0,0,0,0,0,0,0,0,0,62,0,18,0,0,0,0,0,27,0,0,0,33,0,55,25,0,0,0,0,28,0,44,0,64,38,0,43,0,56,0,0,0,53,0,34,0,41,0|
0,34,0,0,47,0,52,0,0,0,0,24,0,37,1,0,0,2,0,0,0,0,0,0,27,0,0,0,0,35,55,0,59,0,0,0,0,0,49,6,0,0,31,0,43,7,13,0,0,0,0,0,0,40,0,15,0,0,0,0,54,0,0,0|
0,0,0,35,0,0,0,3,0,0,0,46,0,0,0,0,56,41,0,15,0,0,34,31,0,0,0,0,0,63,23,0,1,17,0,0,2,45,0,0,0,59,38,0,0,0,58,0,33,0,0,0,0,51,0,42,0,0,62,0,0,8,0,0|
0,0,0,0,0,0,0,0,0,0,9,0,0,61,20,0,22,0,53,0,0,0,0,0,0,59,5,0,4,13,0,0,0,38,51,0,0,0,14,0,16,35,0,0,0,0,56,0,0,28,2,0,32,0,57,0,0,0,37,55,0,0,0,0|
0,4,51,20,0,64,37,16,0,0,0,0,10,0,39,0,55,27,32,0,13,52,18,17,0,0,0,0,31,0,0,29,0,0,23,0,30,0,0,0,0,0,0,0,45,0,0,0,61,0,0,0,0,19,0,0,0,35,0,57,0,0,25,0|
0,0,29,0,0,0,32,0,7,0,0,0,0,0,51,0,0,0,6,5,16,39,0,0,42,0,26,0,0,0,0,43,0,0,0,0,0,0,31,0,0,0,0,4,0,0,19,64,37,27,0,0,3,0,0,0,0,0,0,0,50,11,0,0|
0,45,0,55,40,0,0,0,0,0,23,0,0,33,0,22,0,19,0,0,0,0,0,0,0,0,0,0,28,11,0,0,0,0,0,0,0,0,0,0,51,0,0,0,0,0,1,9,0,0,0,0,0,62,0,46,29,0,0,7,31,61,0,0|
18,0,0,0,0,0,21,0,50,39,0,0,0,0,0,0,60,0,14,0,0,31,0,0,6,0,15,58,0,0,62,0,0,0,0,0,46,0,0,0,0,0,53,0,38,40,0,19,0,0,0,0,37,0,51,8,0,23,0,43,5,0,0,0|
14,0,0,0,63,0,0,40,0,4,26,0,62,0,33,0,0,0,0,0,39,0,13,12,59,0,0,11,8,0,0,0,0,56,0,0,0,0,15,0,0,57,58,0,0,1,0,0,23,53,5,0,0,29,0,0,0,0,64,24,7,0,0,31|
0,0,37,0,0,4,58,0,0,0,0,0,0,0,57,8,0,28,0,0,0,16,0,0,0,31,0,60,0,50,0,0,0,0,0,0,0,0,0,24,0,39,0,0,0,0,0,0,49,0,0,0,0,0,21,0,0,19,34,0,32,0,0,36|
31,60,0,0,19,50,46,0,29,20,41,23,0,0,0,64,0,0,0,1,21,58,6,0,49,0,0,0,5,0,0,25,0,62,27,0,0,0,0,0,0,0,0,0,24,0,0,0,13,0,0,0,0,11,39,33,0,0,0,0,0,15,0,0|
0,27,0,0,0,62,0,0,0,58,1,0,0,0,38,0,0,64,36,0,26,0,0,0,52,32,0,0,0,0,9,37,0,0,0,0,0,0,0,39,0,0,23,0,0,33,50,0,0,0,0,0,12,0,0,0,0,49,28,10,0,0,42,51|
0,0,0,0,0,0,0,61,0,0,0,0,56,0,0,0,0,0,0,0,59,3,33,0,38,22,0,0,0,0,36,0,0,0,58,48,0,0,57,0,0,0,21,0,8,49,0,0,0,16,0,0,18,0,0,2,0,17,26,47,63,39,0,0|
6,0,0,0,0,0,8,0,27,0,0,0,0,0,52,0,0,0,0,0,29,15,0,0,0,0,0,0,0,0,19,0,0,0,36,0,0,0,0,0,13,18,0,0,0,0,0,11,0,57,0,0,28,3,45,0,0,14,33,0,22,0,0,0|
11,0,0,0,0,49,0,0,0,19,0,22,0,60,47,0,7,0,0,37,0,20,0,50,0,39,0,0,0,0,0,0,0,5,0,0,26,30,0,0,0,4,59,0,3,35,0,61,0,0,0,0,0,0,0,0,0,0,0,21,6,38,12,0|
0,0,0,0,0,0,0,0,0,0,0,0,0,0,0,0,0,0,60,0,57,0,0,0,0,0,0,0,0,0,0,63,0,0,0,0,0,0,0,54,49,0,30,0,56,0,0,0,0,0,0,0,10,0,7,0,17,27,0,23,45,0,0,0|
0,0,31,0,0,0,0,24,0,0,0,0,0,45,60,0,0,63,0,4,5,0,0,0,56,0,0,37,64,46,0,0,0,0,0,0,0,0,0,0,0,0,0,0,0,0,0,0,21,0,0,40,0,0,0,0,0,39,0,0,0,0,0,12|
49,48,0,0,0,22,0,44,0,0,0,0,0,13,0,0,0,0,0,45,2,0,0,0,0,0,47,21,57,0,3,0,0,0,35,0,1,16,0,0,0,0,46,62,0,58,0,0,0,0,0,41,0,0,0,6,0,43,0,0,0,0,0,0|
0,40,0,0,0,0,0,32,10,0,0,19,0,59,0,0,23,0,0,0,0,0,0,0,0,8,0,0,0,0,0,0,0,0,0,45,61,0,0,0,0,0,0,0,15,0,4,0,0,0,0,53,0,0,25,64,0,0,0,0,0,0,0,0|
60,0,58,0,0,0,4,9,0,47,0,0,0,0,21,0,0,40,0,29,0,0,0,28,0,0,31,0,20,0,5,0,24,51,34,64,0,0,0,0,0,8,32,10,50,0,0,0,0,0,52,19,0,0,0,0,0,0,61,0,42,0,15,0|
0,0,0,0,0,0,17,0,58,0,0,14,0,0,0,0,15,0,0,0,33,0,53,0,28,0,0,22,9,0,0,0,31,55,0,19,4,0,0,20,0,0,41,0,0,0,11,39,0,38,0,56,0,0,0,0,0,3,0,0,64,0,0,0|
0,0,0,0,1,0,0,19,0,0,0,0,0,17,0,0,31,0,0,0,0,0,43,0,0,0,0,0,38,0,50,0,0,0,12,21,11,0,40,37,0,47,29,36,35,54,0,0,0,2,33,0,0,5,0,13,22,58,32,0,53,48,0,25|
16,0,55,0,0,52,0,0,18,0,40,0,0,0,0,43,0,0,20,9,50,0,0,0,4,0,23,0,19,0,0,58,26,0,0,0,0,0,0,63,0,0,0,44,61,0,0,34,0,0,24,0,0,0,0,0,0,0,0,0,1,0,38,28|
0,0,0,0,0,0,0,0,0,0,58,0,0,0,0,0,1,0,64,0,0,0,0,0,31,27,50,24,37,0,0,0,0,0,44,0,40,0,0,0,46,32,62,2,0,0,0,63,0,0,0,0,0,0,0,0,56,0,15,4,51,0,0,0|
55,0,0,0,0,0,0,0,0,61,0,64,42,0,29,1,0,62,0,28,45,44,4,2,34,0,14,35,21,0,0,0,0,18,0,27,0,0,0,0,54,0,26,49,10,6,0,0,0,25,63,0,0,16,0,0,0,0,0,0,0,0,8,47|
0,31,0,0,16,26,0,4,41,0,0,0,53,0,49,0,33,0,0,0,0,0,0,59,9,42,7,0,0,0,56,28,0,0,0,0,0,0,51,0,0,0,0,0,36,0,22,0,55,39,29,0,0,0,35,0,0,13,0,0,0,0,0,0|
61,0,0,0,14,0,0,0,0,32,0,10,0,0,0,38,13,0,0,0,0,0,0,8,12,2,0,1,0,0,0,59,29,45,21,0,0,39,58,0,0,0,0,31,0,0,0,0,0,43,0,0,51,26,18,0,48,0,0,11,0,5,46,0|
7,0,0,0,0,0,29,0,0,0,20,40,24,0,0,0,0,47,0,31,46,0,0,0,10,0,0,0,54,45,0,61,0,0,0,0,0,0,0,57,0,0,42,0,0,0,0,38,52,3,0,0,0,0,0,0,0,0,21,0,0,0,0,43|
0,0,2,34,18,42,60,0,0,0,0,0,0,0,0,0,0,30,0,23,22,0,0,0,0,4,0,0,0,0,0,0,0,0,0,46,0,9,61,0,0,0,0,0,0,37,0,0,0,0,21,0,0,57,0,32,45,0,0,1,0,63,0,0|
47,0,0,13,0,0,0,0,0,0,31,0,0,0,0,9,41,36,0,0,24,61,0,0,19,57,0,0,39,0,15,5,32,0,0,54,64,4,0,0,0,0,0,0,0,0,0,0,0,0,0,58,0,0,0,49,0,0,0,29,35,0,22,0|
0,0,0,0,59,54,0,0,0,0,0,0,5,26,0,35,0,21,58,0,0,0,40,0,0,0,0,0,0,0,0,44,0,49,0,0,41,0,52,43,11,0,0,57,0,24,0,0,0,0,0,15,0,0,0,19,0,0,0,25,0,10,36,0|
0,3,0,0,0,0,43,0,24,0,27,59,0,0,0,26,4,53,21,0,0,0,0,61,0,0,0,12,0,0,0,33,0,52,0,0,0,0,0,38,0,0,0,0,48,56,0,47,0,45,54,0,0,23,0,0,0,0,0,17,0,16,7,0|
0,0,52,0,0,0,0,30,0,0,0,0,0,0,0,51,0,0,0,0,35,43,27,0,2,0,0,0,0,0,39,0,0,0,31,63,0,12,0,0,0,23,60,40,0,0,46,0,0,0,0,0,0,0,0,0,59,55,0,0,0,0,0,0|
0,0,47,0,0,0,0,60,0,0,8,0,0,64,16,0,0,0,0,0,0,25,0,0,63,53,0,0,51,41,0,0,0,0,42,49,15,0,0,0,24,0,52,0,0,21,0,0,0,17,0,0,30,37,0,0,23,0,27,22,0,32,0,0|
0,0,0,9,56,29,0,0,0,52,0,20,0,6,0,15,64,33,0,0,8,37,39,0,0,49,0,36,0,0,0,35,61,58,17,0,0,10,0,0,19,0,44,0,0,2,0,0,12,0,0,0,0,0,5,0,0,0,0,34,0,0,0,0|
0,0,0,61,0,0,48,53,25,42,0,0,38,0,0,0,0,0,55,0,0,29,49,44,23,0,0,0,59,0,0,0,0,0,33,1,0,20,2,0,35,27,0,0,0,8,0,0,43,0,50,0,64,47,0,10,0,62,0,26,0,0,58,6|
0,55,0,51,17,0,14,37,0,0,0,0,0,0,0,0,0,0,0,0,0,41,0,0,30,0,0,0,60,20,10,0,46,0,5,6,0,47,0,0,0,49,0,0,0,0,0,59,0,56,0,0,0,0,8,0,33,44,0,0,38,0,0,52|
1,0,0,0,0,0,6,0,55,10,0,0,0,0,17,28,0,0,0,2,0,0,0,0,50,5,0,0,0,27,0,22,0,19,0,0,23,14,0,0,0,41,51,58,0,38,0,0,3,60,61,0,49,0,0,4,53,48,0,0,46,0,45,8|
0,54,0,8,20,13,0,0,0,0,0,47,34,0,12,53,0,22,17,0,52,0,0,23,61,0,44,0,56,43,0,38,25,26,3,0,0,0,24,0,0,33,36,0,0,55,0,6,0,1,0,0,35,0,0,0,0,0,19,0,0,0,0,30|
0,50,0,0,0,0,20,0,5,0,34,0,0,55,31,12,35,26,0,57,0,4,0,0,25,0,29,0,0,15,54,0,0,0,0,59,0,58,0,0,0,0,0,63,0,0,10,62,8,0,0,0,19,27,0,3,1,0,60,0,0,28,0,32|
3,0,0,0,0,0,0,0,44,0,0,16,0,0,0,0,0,0,0,0,25,62,47,27,0,12,0,0,42,0,0,0,0,0,50,0,0,0,0,33,0,0,0,53,0,61,0,0,0,54,17,64,29,0,0,37,0,5,0,0,4,0,48,0|
53,11,26,19,44,59,0,0,0,64,0,0,17,0,0,27,0,9,8,0,0,0,0,0,1,0,0,7,0,0,0,0,15,23,0,0,28,0,18,16,0,0,0,0,0,42,0,54,6,62,0,0,0,0,0,5,0,47,38,12,43,13,0,0|
21,0,0,0,9,40,0,0,1,6,0,0,0,57,0,0,0,0,0,0,63,53,0,38,0,0,35,0,0,0,52,26,0,47,0,0,48,0,0,2,0,31,0,0,0,29,55,60,0,0,0,0,58,24,0,0,0,0,0,0,0,0,0,0|
5,0,0,25,64,38,0,31,0,33,0,0,23,0,0,0,0,0,0,17,0,48,0,19,58,0,22,2,0,0,0,0,0,0,0,0,0,27,12,8,41,0,0,43,0,0,45,15,59,0,0,0,0,4,61,50,0,26,42,46,55,29,0,0|
0,0,0,12,0,0,0,0,26,0,53,0,9,50,48,0,0,0,0,0,0,0,0,0,0,0,21,0,23,0,0,0,0,42,60,0,0,0,0,17,0,0,3,27,0,52,0,0,0,18,0,0,0,14,0,39,64,0,0,31,0,20,0,0|
0,0,0,52,55,0,0,18,42,0,49,56,0,0,0,0,59,15,3,0,0,0,20,0,0,0,0,0,6,0,13,0,4,0,0,0,38,0,0,0,0,0,0,0,0,0,21,0,44,63,0,0,0,0,0,0,0,50,0,0,0,19,0,0|
17,0,0,0,0,60,0,0,0,0,0,0,40,0,0,0,0,0,29,42,18,0,0,0,0,0,0,46,0,44,48,0,0,0,53,0,63,5,0,3,0,19,0,0,0,0,0,51,0,0,34,0,9,33,0,0,0,36,58,0,23,0,0,0|];